20170629 70 0 0 0
20160418 150 20000 0 0
20150714 150 0 0 0
20140704 120 0 0 0
20130531 200 0 0 0
20120509 100 0 0 0
20110603 100 0 0 0
20100513 100 0 0 0
20080819 100 0 0 0
20061227 0 6000 0 0
20020712 30 0 0 0
20000714 50 1000 0 0
19980618 120 0 0 0
